####################################################################### 
# 
# This file contains crystal structure data downloaded from the 
# Cambridge Structural Database (CSD) hosted by the Cambridge 
# Crystallographic Data Centre (CCDC).
# 
# Full information about CCDC data access policies and citation 
# guidelines are available at http://www.ccdc.cam.ac.uk/access/V1 
# 
# Audit and citation data items may have been added by the CCDC. 
# Please retain this information to preserve the provenance of 
# this file and to allow appropriate attribution of the data. 
# 
#######################################################################

data_XEQTIW
#This CIF has been generated from an entry in the Cambridge Structural Database
_database_code_depnum_ccdc_archive 'CCDC 1296051'
_database_code_CSD               XEQTIW
loop_
_citation_id
_citation_doi
_citation_year
1 10.1021/ol9913587 2000
_audit_creation_method           'Created from the CSD'
_audit_update_record             
;
2017-12-20 downloaded from the CCDC.
;
_database_code_NBS               746306
_chemical_formula_moiety         
'C25 H32 O9,C37 H40 N1 P1 2+,2(F6 P1 1-),0.25(H2 O1)'
_chemical_name_systematic        
'(2)-((4-t-Butylbenzyl)(4-(triphenylphosphiniummethyl)benzyl)ammonium)-(14-formyl-2,5,8,11,18,21,24,27-octaoxatricyclo(26.4.0.0^12,17^)tricosa-1(28),12,14,16,29,31-hexaene)-rotaxane bis(hexafluorophosphate) hydrate'
_chemical_absolute_configuration unk
_diffrn_ambient_temperature      295
_exptl_crystal_density_diffrn    1.326
#These two values have been output from a single CSD field.
_refine_ls_R_factor_gt           0.0836
_refine_ls_wR_factor_gt          0.0836
_diffrn_radiation_probe          x-ray
_symmetry_cell_setting           triclinic
_symmetry_space_group_name_H-M   'P -1'
_symmetry_Int_Tables_number      2
_space_group_name_Hall           '-P 1'
loop_
_symmetry_equiv_pos_site_id
_symmetry_equiv_pos_as_xyz
1 x,y,z
2 -x,-y,-z
_cell_length_a                   10.6321(10)
_cell_length_b                   14.913(2)
_cell_length_c                   21.145(2)
_cell_angle_alpha                81.826(8)
_cell_angle_beta                 82.964(7)
_cell_angle_gamma                80.729(9)
_cell_volume                     3258.2
_exptl_crystal_description       'blocky prisms'
_cell_formula_units_Z            2
_exptl_crystal_recrystallization_method dichloromethane/methanol
loop_
_atom_site_label
_atom_site_type_symbol
_atom_site_fract_x
_atom_site_fract_y
_atom_site_fract_z
O1 O 0.6601(4) 0.4772(3) 0.3750(2)
C1 C 0.7904(7) 0.4573(7) 0.3880(3)
C2 C 0.8794(8) 0.5035(9) 0.3465(4)
O2 O 0.8815(4) 0.4866(4) 0.2811(2)
C3 C 0.9727(7) 0.5347(7) 0.2440(4)
C4 C 0.9654(7) 0.5339(7) 0.1742(4)
O3 O 0.8556(5) 0.5898(4) 0.1551(2)
C5 C 0.8553(9) 0.5992(8) 0.0878(4)
C6 C 0.7431(10) 0.6651(7) 0.0686(4)
O4 O 0.6321(5) 0.6209(4) 0.0778(2)
C7 C 0.5131(11) 0.6621(8) 0.0611(4)
C8 C 0.4856(12) 0.7540(9) 0.0419(5)
C9 C 0.3662(17) 0.7905(11) 0.0219(8)
C10 C 0.2751(15) 0.7359(13) 0.0230(8)
C11 C 0.3025(11) 0.6419(10) 0.0415(6)
C12 C 0.4205(10) 0.6059(10) 0.0619(5)
O5 O 0.4547(6) 0.5173(6) 0.0813(3)
C13 C 0.3675(10) 0.4511(9) 0.0770(4)
C14 C 0.4275(11) 0.3630(8) 0.1033(4)
O6 O 0.4138(5) 0.3498(4) 0.1726(2)
C23 C 0.2945(8) 0.3282(6) 0.1987(4)
C24 C 0.2918(8) 0.3055(6) 0.2664(4)
O9 O 0.3116(4) 0.3796(3) 0.2962(2)
C25 C 0.2810(7) 0.3654(5) 0.3644(3)
C26 C 0.2892(6) 0.4503(5) 0.3912(3)
O10 O 0.4213(4) 0.4628(3) 0.3836(2)
C27 C 0.4496(6) 0.5338(4) 0.4107(2)
C28 C 0.3609(6) 0.5978(5) 0.4409(3)
C29 C 0.4026(8) 0.6665(5) 0.4661(3)
C30 C 0.5281(9) 0.6725(5) 0.4630(3)
C31 C 0.6193(7) 0.6095(5) 0.4340(3)
C32 C 0.5791(6) 0.5410(4) 0.4076(2)
C33 C 0.3178(25) 0.7438(15) 0.4886(14)
O11 O 0.3497(26) 0.8188(15) 0.4903(13)
H1 H 0.7948(7) 0.4706(7) 0.4312(3)
H2 H 0.8175(7) 0.3921(7) 0.3876(3)
H3 H 0.9641(8) 0.4837(9) 0.3606(4)
H4 H 0.8580(8) 0.5687(9) 0.3489(4)
H5 H 1.0576(7) 0.5071(7) 0.2549(4)
H6 H 0.9586(7) 0.5975(7) 0.2536(4)
H7 H 1.0404(7) 0.5554(7) 0.1497(4)
H8 H 0.9640(7) 0.4718(7) 0.1657(4)
H9 H 0.8516(9) 0.5402(8) 0.0743(4)
H10 H 0.9334(9) 0.6207(8) 0.0672(4)
H11 H 0.7298(10) 0.7157(7) 0.0941(4)
H12 H 0.7584(10) 0.6896(7) 0.0237(4)
H13 H 0.5467(12) 0.7920(9) 0.0423(5)
H15 H 0.1941(15) 0.7613(13) 0.0115(8)
H16 H 0.2418(11) 0.6040(10) 0.0400(6)
H17 H 0.2854(10) 0.4677(9) 0.1011(4)
H18 H 0.3536(10) 0.4504(9) 0.0326(4)
H19 H 0.5179(11) 0.3557(8) 0.0880(4)
H20 H 0.3902(11) 0.3160(8) 0.0879(4)
H29 H 0.2760(8) 0.2768(6) 0.1798(4)
H30 H 0.2292(8) 0.3801(6) 0.1887(4)
H33 H 0.2095(8) 0.2872(6) 0.2835(4)
H34 H 0.3577(8) 0.2540(6) 0.2762(4)
H35 H 0.3405(7) 0.3153(5) 0.3831(3)
H36 H 0.1952(7) 0.3496(5) 0.3744(3)
H37 H 0.2384(6) 0.5021(5) 0.3687(3)
H38 H 0.2569(6) 0.4451(5) 0.4363(3)
H39 H 0.2739(6) 0.5940(5) 0.4440(3)
H42 H 0.7060(7) 0.6134(5) 0.4323(3)
H43 H 0.2334(25) 0.7362(15) 0.5027(14)
N1 N 0.5786(5) 0.4319(5) 0.2563(2)
C37 C 0.6795(6) 0.3578(4) 0.2348(3)
C38 C 0.6661(5) 0.2659(4) 0.2721(3)
C39 C 0.7026(6) 0.1886(4) 0.2421(3)
C40 C 0.6936(7) 0.1024(5) 0.2753(4)
C41 C 0.6495(6) 0.0893(4) 0.3389(4)
C42 C 0.6148(7) 0.1671(5) 0.3700(4)
C43 C 0.6247(7) 0.2546(5) 0.3371(4)
C44 C 0.6352(8) -0.0048(5) 0.3766(5)
C45 C 0.7154(10) -0.0219(6) 0.4318(5)
C46 C 0.6739(12) -0.0813(6) 0.3338(6)
C47 C 0.4954(9) -0.0063(8) 0.3998(6)
C48 C 0.5824(6) 0.5177(4) 0.2114(3)
C49 C 0.4974(5) 0.5984(4) 0.2379(2)
C50 C 0.5491(6) 0.6639(4) 0.2619(3)
C51 C 0.4719(6) 0.7357(4) 0.2885(3)
C52 C 0.3411(6) 0.7435(4) 0.2908(3)
C53 C 0.2866(6) 0.6791(4) 0.2665(3)
C54 C 0.3650(6) 0.6074(4) 0.2405(3)
C55 C 0.2582(7) 0.8215(4) 0.3226(3)
P1 P 0.1973(2) 0.9204(1) 0.2703(1)
C56 C 0.1348(4) 1.0010(3) 0.3830(2)
C57 C 0.0782(5) 1.0721(3) 0.4177(2)
C58 C 0.0031(5) 1.1476(3) 0.3880(2)
C59 C -0.0153(5) 1.1520(3) 0.3236(2)
C60 C 0.0413(4) 1.0809(3) 0.2889(2)
C61 C 0.1164(4) 1.0053(2) 0.3186(2)
C62 C 0.3532(4) 1.0517(3) 0.2267(2)
C63 C 0.4566(5) 1.0857(3) 0.1898(3)
C64 C 0.5334(4) 1.0332(4) 0.1464(3)
C65 C 0.5069(5) 0.9469(4) 0.1401(2)
C66 C 0.4035(5) 0.9129(3) 0.1771(2)
C67 C 0.3266(4) 0.9653(3) 0.2204(2)
C68 C 0.0875(6) 0.9332(5) 0.1576(2)
C69 C -0.0021(8) 0.9156(7) 0.1200(3)
C70 C -0.0906(7) 0.8577(6) 0.1458(4)
C71 C -0.0894(5) 0.8173(5) 0.2092(4)
C72 C 0.0001(5) 0.8348(4) 0.2468(3)
C73 C 0.0886(4) 0.8928(4) 0.2210(2)
H47 H 0.5043(33) 0.4144(45) 0.2503(34)
H48 H 0.5756(55) 0.4401(38) 0.2978(8)
H49 H 0.7629(6) 0.3731(4) 0.2393(3)
H50 H 0.6752(6) 0.3544(4) 0.1897(3)
H51 H 0.7339(6) 0.1941(4) 0.1989(3)
H52 H 0.7186(7) 0.0515(5) 0.2535(4)
H53 H 0.5845(7) 0.1610(5) 0.4133(4)
H54 H 0.6032(7) 0.3055(5) 0.3591(4)
H55 H 0.8037(10) -0.0206(6) 0.4158(5)
H56 H 0.7061(10) -0.0807(6) 0.4554(5)
H57 H 0.6879(10) 0.0248(6) 0.4595(5)
H58 H 0.6221(12) -0.0700(6) 0.2985(6)
H59 H 0.6613(12) -0.1390(6) 0.3584(6)
H60 H 0.7625(12) -0.0831(6) 0.3175(6)
H61 H 0.4461(9) 0.0048(8) 0.3636(6)
H62 H 0.4665(9) 0.0404(8) 0.4274(6)
H63 H 0.4846(9) -0.0651(8) 0.4232(6)
H64 H 0.5547(6) 0.5095(4) 0.1708(3)
H65 H 0.6699(6) 0.5307(4) 0.2033(3)
H66 H 0.6377(6) 0.6597(4) 0.2603(3)
H67 H 0.5087(6) 0.7788(4) 0.3048(3)
H68 H 0.1980(6) 0.6841(4) 0.2676(3)
H69 H 0.3280(6) 0.5641(4) 0.2244(3)
H70 H 0.3081(7) 0.8412(4) 0.3521(3)
H71 H 0.1859(7) 0.7973(4) 0.3479(3)
H72 H 0.1851(4) 0.9504(3) 0.4029(2)
H73 H 0.0905(7) 1.0691(5) 0.4608(2)
H74 H -0.0348(7) 1.1952(4) 0.4112(3)
H75 H -0.0655(6) 1.2025(3) 0.3037(3)
H76 H 0.0290(7) 1.0838(4) 0.2458(2)
H77 H 0.3018(4) 1.0868(3) 0.2557(2)
H78 H 0.4743(7) 1.1434(3) 0.1940(4)
H79 H 0.6026(6) 1.0559(5) 0.1217(4)
H80 H 0.5583(7) 0.9118(5) 0.1111(3)
H81 H 0.3857(7) 0.8551(3) 0.1728(3)
H82 H 0.1467(6) 0.9720(5) 0.1403(2)
H83 H -0.0028(12) 0.9427(9) 0.0776(3)
H84 H -0.1505(9) 0.8459(9) 0.1207(5)
H85 H -0.1486(8) 0.7785(6) 0.2265(6)
H86 H 0.0009(8) 0.8078(6) 0.2892(3)
P2 P 0.9605(2) 0.7068(1) 0.4544(1)
F1 F 0.9185(5) 0.6089(3) 0.4710(2)
F2 F 0.8666(5) 0.7283(4) 0.3995(2)
F3 F 0.8519(5) 0.7456(4) 0.5037(3)
F4 F 1.0537(6) 0.6831(4) 0.5071(3)
F5 F 1.0686(4) 0.6693(3) 0.4022(2)
F6 F 0.9989(5) 0.8061(3) 0.4358(3)
P3 P 1.0150(2) 0.2567(2) 0.1005(1)
F7 F 0.9469(8) 0.1713(5) 0.1210(4)
F8 F 0.8850(8) 0.3164(7) 0.0949(4)
F9 F 1.0030(8) 0.2781(5) 0.1716(3)
F10 F 1.1468(8) 0.1983(7) 0.1096(5)
F11 F 1.0250(7) 0.2402(5) 0.0291(2)
F12 F 1.0875(8) 0.3426(5) 0.0813(3)
O15 O 0.2634(23) 1.0954(17) -0.0084(12)
C15? C 0.5465(24) 0.6918(18) 0.0524(19)
C16? C 0.5589(25) 0.7819(18) 0.0314(15)
C17? C 0.4527(32) 0.8431(18) 0.0132(21)
C18? C 0.3362(28) 0.8133(20) 0.0149(23)
C19? C 0.3245(26) 0.7226(21) 0.0351(25)
C20? C 0.4296(26) 0.6609(16) 0.0528(18)
O7? O 0.4194(34) 0.5748(22) 0.0752(21)
C21? C 0.3276(38) 0.5194(24) 0.0683(16)
C22? C 0.3480(79) 0.4269(26) 0.0995(15)
O8? O 0.3218(38) 0.4149(18) 0.1666(12)
C34? C 0.5576(36) 0.7513(20) 0.4857(22)
O12? O 0.4679(33) 0.8091(19) 0.4977(15)
C35? C 0.3054(31) 0.8862(16) 0.0090(18)
O13? O 0.3634(10) 0.9466(18) 0.0072(15)
C36? C 0.2204(38) 0.8749(26) -0.0059(31)
O14? O 0.2283(40) 0.9555(24) -0.0197(21)
H14? H 0.3469(17) 0.8547(11) 0.0075(8)
H21? H 0.6381(25) 0.8017(18) 0.0293(15)
H22? H 0.4604(32) 0.9044(18) -0.0001(21)
H23? H 0.2636(28) 0.8565(20) 0.0024(23)
H24? H 0.2454(26) 0.7028(21) 0.0368(25)
H25? H 0.3247(38) 0.5176(24) 0.0229(16)
H26? H 0.2442(38) 0.5485(24) 0.0850(16)
H27? H 0.2952(79) 0.3915(26) 0.0817(15)
H28? H 0.4367(79) 0.4015(26) 0.0888(15)
H31? H 0.3417(8) 0.2760(6) 0.1803(4)
H32? H 0.2074(8) 0.3317(6) 0.1897(4)
H40? H 0.3430(8) 0.7096(5) 0.4855(3)
H41? H 0.5541(9) 0.7194(5) 0.4806(3)
H44? H 0.6411(36) 0.7579(20) 0.4909(22)
H45? H 0.2192(31) 0.8987(16) 0.0022(18)
H46? H 0.1446(38) 0.8523(26) -0.0081(31)

#END
