####################################################################### 
# 
# This file contains crystal structure data downloaded from the 
# Cambridge Structural Database (CSD) hosted by the Cambridge 
# Crystallographic Data Centre (CCDC).
# 
# Full information about CCDC data access policies and citation 
# guidelines are available at http://www.ccdc.cam.ac.uk/access/V1 
# 
# Audit and citation data items may have been added by the CCDC. 
# Please retain this information to preserve the provenance of 
# this file and to allow appropriate attribution of the data. 
# 
#######################################################################

data_FS0014
_audit_block_doi                 10.5517/cc57fng
_database_code_depnum_ccdc_archive 'CCDC 156105'
loop_
_citation_id
_citation_doi
_citation_year
1 10.1002/1521-3773(20010518)40:10<1870::AID-ANIE1870>3.3.CO;2-Q 2001
_audit_update_record             
;
2001-01-15 deposited with the CCDC.
2017-12-21 downloaded from the CCDC.
;

_audit_creation_method           SHELXL
_chemical_name_systematic        
; 
? 
;
_chemical_name_common            ?
_chemical_formula_moiety         ?
_chemical_formula_structural     ?
_chemical_formula_analytical     ?
_chemical_formula_sum            'C45 H57 N4 O9 P F6'
_chemical_formula_weight         942.92
_chemical_melting_point          ?
_chemical_compound_source        ?

loop_
_atom_type_symbol
_atom_type_description
_atom_type_scat_dispersion_real
_atom_type_scat_dispersion_imag
_atom_type_scat_source
C C 0.0181 0.0091 'International Tables Vol C Tables 4.2.6.8 and 6.1.1.4'
H H 0.0000 0.0000 'International Tables Vol C Tables 4.2.6.8 and 6.1.1.4'
N N 0.0311 0.0180 'International Tables Vol C Tables 4.2.6.8 and 6.1.1.4'
O O 0.0492 0.0322 'International Tables Vol C Tables 4.2.6.8 and 6.1.1.4'
F F 0.0727 0.0534 'International Tables Vol C Tables 4.2.6.8 and 6.1.1.4'
P P 0.2955 0.4335 'International Tables Vol C Tables 4.2.6.8 and 6.1.1.4'

_symmetry_cell_setting           Triclinic
_symmetry_space_group_name_H-M   P-1

loop_
_symmetry_equiv_pos_as_xyz
'x, y, z'
'-x, -y, -z'

_cell_length_a                   11.1613(3)
_cell_length_b                   13.5170(6)
_cell_length_c                   16.4477(8)
_cell_angle_alpha                91.495(4)
_cell_angle_beta                 105.531(3)
_cell_angle_gamma                100.671(4)
_cell_volume                     2342.0(2)
_cell_formula_units_Z            2
_cell_measurement_temperature    293(2)
_cell_measurement_reflns_used    23
_cell_measurement_theta_min      10.79
_cell_measurement_theta_max      25.00

_exptl_crystal_description       prisms
_exptl_crystal_colour            Colourless
_exptl_crystal_size_max          0.67
_exptl_crystal_size_mid          0.50
_exptl_crystal_size_min          0.47
_exptl_crystal_density_meas      ?
_exptl_crystal_density_diffrn    1.337
_exptl_crystal_density_method    ?
_exptl_crystal_F_000             992
_exptl_absorpt_coefficient_mu    1.228
_exptl_absorpt_correction_type   Ellipsoidal
_exptl_absorpt_correction_T_min  0.5185
_exptl_absorpt_correction_T_max  0.5712

_exptl_special_details           
; 
? 
;

_diffrn_ambient_temperature      293(2)
_diffrn_radiation_wavelength     1.54178
_diffrn_radiation_type           CuK\a
_diffrn_radiation_source         'fine-focus sealed tube'
_diffrn_radiation_monochromator  graphite
_diffrn_measurement_device       'Siemens P4'
_diffrn_measurement_method       '\w scans'
_diffrn_standards_number         3
_diffrn_standards_interval_count 97
_diffrn_standards_interval_time  ?
_diffrn_standards_decay_%        ?
_diffrn_reflns_number            7362
_diffrn_reflns_av_R_equivalents  0.0159
_diffrn_reflns_av_sigmaI/netI    0.0223
_diffrn_reflns_limit_h_min       -6
_diffrn_reflns_limit_h_max       12
_diffrn_reflns_limit_k_min       -15
_diffrn_reflns_limit_k_max       14
_diffrn_reflns_limit_l_min       -18
_diffrn_reflns_limit_l_max       13
_diffrn_reflns_theta_min         2.80
_diffrn_reflns_theta_max         59.98
_reflns_number_total             6948
_reflns_number_observed          5730
_reflns_observed_criterion       >2sigma(I)

_computing_data_collection       'Siemens XSCANS'
_computing_cell_refinement       'Siemens XSCANS'
_computing_data_reduction        'Siemens SHELXTL'
_computing_structure_solution    'SHELXS-86 (Sheldrick, 1990)'
_computing_structure_refinement  'SHELXL-93 (Sheldrick, 1993)'
_computing_molecular_graphics    'Siemens SHELXTL'
_computing_publication_material  'Siemens SHELXTL'

_refine_special_details          
; 
Refinement on F^2^ for ALL reflections except for 355 with very negative F^2^ 
or flagged by the user for potential systematic errors.  Weighted R-factors 
wR and all goodnesses of fit S are based on F^2^, conventional R-factors R 
are based on F, with F set to zero for negative F^2^. The observed criterion 
of F^2^ > 2sigma(F^2^) is used only for calculating _R_factor_obs etc. and is 
not relevant to the choice of reflections for refinement.  R-factors based 
on F^2^ are statistically about twice as large as those based on F, and R- 
factors based on ALL data will be even larger. 
;

_refine_ls_structure_factor_coef Fsqd
_refine_ls_matrix_type           full
_refine_ls_weighting_scheme      
'calc w=1/[\s^2^(Fo^2^)+(0.0713P)^2^+1.1377P] where P=(Fo^2^+2Fc^2^)/3'
_atom_sites_solution_primary     direct
_atom_sites_solution_secondary   difmap
_atom_sites_solution_hydrogens   geom
_refine_ls_hydrogen_treatment    ?
_refine_ls_extinction_method     SHELXL
_refine_ls_extinction_coef       0.0186(7)
_refine_ls_extinction_expression Fc^*^=kFc[1+0.001xFc^2^\l^3^/sin(2\q)]^-1/4^
_refine_ls_number_reflns         6593
_refine_ls_number_parameters     624
_refine_ls_number_restraints     71
_refine_ls_R_factor_all          0.0674
_refine_ls_R_factor_obs          0.0547
_refine_ls_wR_factor_all         0.1551
_refine_ls_wR_factor_obs         0.1417
_refine_ls_goodness_of_fit_all   1.040
_refine_ls_goodness_of_fit_obs   1.076
_refine_ls_restrained_S_all      1.106
_refine_ls_restrained_S_obs      1.132
_refine_ls_shift/esd_max         0.000
_refine_ls_shift/esd_mean        0.000

loop_
_atom_site_label
_atom_site_type_symbol
_atom_site_fract_x
_atom_site_fract_y
_atom_site_fract_z
_atom_site_U_iso_or_equiv
_atom_site_thermal_displace_type
_atom_site_occupancy
_atom_site_calc_flag
_atom_site_refinement_flags
_atom_site_disorder_group
N1 N 0.5608(2) 0.6634(2) 0.75405(13) 0.0524(5) Uani 1 d . .
C2 C 0.6829(3) 0.6783(2) 0.7547(2) 0.0560(7) Uani 1 d . .
C3 C 0.7502(3) 0.6011(3) 0.7650(2) 0.0796(10) Uani 1 d . .
H3A H 0.8346(3) 0.6134(3) 0.7641(2) 0.096 Uiso 1 calc R .
C4 C 0.6914(4) 0.5066(3) 0.7764(3) 0.1027(15) Uani 1 d . .
H4A H 0.7351(4) 0.4537(3) 0.7837(3) 0.123 Uiso 1 calc R .
C5 C 0.5673(4) 0.4913(2) 0.7770(3) 0.0904(12) Uani 1 d . .
H5A H 0.5257(4) 0.4278(2) 0.7855(3) 0.108 Uiso 1 calc R .
C6 C 0.5034(3) 0.5709(2) 0.7647(2) 0.0598(7) Uani 1 d . .
C7 C 0.3660(3) 0.5547(2) 0.7654(2) 0.0653(8) Uani 1 d . .
H7A H 0.3287(3) 0.4833(2) 0.7537(2) 0.078 Uiso 1 calc R .
H7B H 0.3622(3) 0.5751(2) 0.8215(2) 0.078 Uiso 1 calc R .
N8 N 0.2914(2) 0.6111(2) 0.70375(15) 0.0601(6) Uani 1 d D .
H8A H 0.2233(18) 0.6241(24) 0.7183(19) 0.075(10) Uiso 1 d D .
C9 C 0.2499(3) 0.5722(2) 0.6188(2) 0.0568(7) Uani 1 d . .
C10 C 0.2879(3) 0.4911(2) 0.5873(2) 0.0686(8) Uani 1 d . .
H10A H 0.3429(3) 0.4573(2) 0.6237(2) 0.082 Uiso 1 calc R .
C11 C 0.2445(3) 0.4596(3) 0.5015(2) 0.0800(10) Uani 1 d . .
H11A H 0.2707(3) 0.4050(3) 0.4810(2) 0.096 Uiso 1 calc R .
C12 C 0.1639(3) 0.5080(3) 0.4473(2) 0.0801(10) Uani 1 d . .
H12A H 0.1355(3) 0.4864(3) 0.3900(2) 0.096 Uiso 1 calc R .
C13 C 0.1246(3) 0.5887(3) 0.4770(2) 0.0714(8) Uani 1 d . .
H13A H 0.0693(3) 0.6216(3) 0.4398(2) 0.086 Uiso 1 calc R .
C14 C 0.1670(3) 0.6208(2) 0.5617(2) 0.0616(7) Uani 1 d . .
O15 O 0.1351(2) 0.7007(2) 0.59945(14) 0.0747(6) Uani 1 d . .
C16 C 0.0327(3) 0.7423(3) 0.5527(3) 0.0847(10) Uani 1 d . .
H16A H -0.0346(3) 0.6888(3) 0.5199(3) 0.102 Uiso 1 calc R .
H16B H 0.0609(3) 0.7878(3) 0.5140(3) 0.102 Uiso 1 calc R .
C17 C -0.0147(4) 0.7972(4) 0.6112(3) 0.1111(15) Uani 1 d D .
H17A H -0.0921(4) 0.8171(4) 0.5797(3) 0.133 Uiso 1 calc R .
H17B H -0.0361(4) 0.7519(4) 0.6523(3) 0.133 Uiso 1 calc R .
O18 O 0.0708(3) 0.8831(2) 0.6544(2) 0.1193(11) Uani 1 d D .
C19 C 0.0579(7) 0.9668(5) 0.6132(5) 0.110(2) Uani 0.60 d PD 1
H19A H -0.0314(7) 0.9637(5) 0.5858(5) 0.132 Uiso 0.60 calc PR 1
H19B H 0.1013(7) 0.9684(5) 0.5693(5) 0.132 Uiso 0.60 calc PR 1
C20 C 0.1088(6) 1.0610(5) 0.6692(9) 0.107(5) Uani 0.60 d PD 1
H20A H 0.0822(6) 1.1174(5) 0.6391(9) 0.129 Uiso 0.60 calc PR 1
H20B H 0.0756(6) 1.0560(5) 0.7181(9) 0.129 Uiso 0.60 calc PR 1
O21 O 0.2406(4) 1.0774(3) 0.6956(4) 0.0890(14) Uani 0.60 d PD 1
C22 C 0.2949(7) 1.1696(5) 0.7465(8) 0.111(5) Uani 0.60 d PDU 1
H22A H 0.2367(7) 1.1816(5) 0.7785(8) 0.133 Uiso 0.60 calc PR 1
H22B H 0.2996(7) 1.2234(5) 0.7089(8) 0.133 Uiso 0.60 calc PR 1
C23 C 0.4214(6) 1.1789(6) 0.8068(5) 0.115(3) Uani 0.60 d PD 1
H23A H 0.4535(6) 1.2496(6) 0.8262(5) 0.138 Uiso 0.60 calc PR 1
H23B H 0.4114(6) 1.1429(6) 0.8556(5) 0.138 Uiso 0.60 calc PR 1
C19' C 0.0365(9) 0.9630(6) 0.6855(6) 0.085(2) Uiso 0.40 d PD 2
H19C H 0.0361(9) 0.9518(6) 0.7434(6) 0.103 Uiso 0.40 calc PR 2
H19D H -0.0504(9) 0.9627(6) 0.6538(6) 0.103 Uiso 0.40 calc PR 2
C20' C 0.1095(13) 1.0634(9) 0.6859(16) 0.134(10) Uiso 0.40 d PD 2
H20C H 0.1106(13) 1.0778(9) 0.6286(16) 0.161 Uiso 0.40 calc PR 2
H20D H 0.0706(13) 1.1128(9) 0.7077(16) 0.161 Uiso 0.40 calc PR 2
O21' O 0.2343(8) 1.0700(7) 0.7369(5) 0.095(3) Uiso 0.40 d PD 2
C22' C 0.2928(13) 1.1724(11) 0.7562(18) 0.175(14) Uiso 0.40 d PD 2
H22C H 0.2990(13) 1.1902(11) 0.8149(18) 0.211 Uiso 0.40 calc PR 2
H22D H 0.2379(13) 1.2124(11) 0.7217(18) 0.211 Uiso 0.40 calc PR 2
C23' C 0.4179(9) 1.2011(9) 0.7438(9) 0.112(4) Uiso 0.40 d PD 2
H23C H 0.4084(9) 1.1980(9) 0.6834(9) 0.134 Uiso 0.40 calc PR 2
H23D H 0.4514(9) 1.2710(9) 0.7656(9) 0.134 Uiso 0.40 calc PR 2
O24 O 0.5058(3) 1.1462(2) 0.7795(3) 0.1334(13) Uani 1 d DU .
C25 C 0.6344(5) 1.1883(3) 0.8123(3) 0.1094(15) Uani 1 d D .
H25A H 0.6434(5) 1.2588(3) 0.8304(3) 0.131 Uiso 1 calc R .
H25B H 0.6760(5) 1.1856(3) 0.7678(3) 0.131 Uiso 1 calc R .
C26 C 0.6991(4) 1.1374(3) 0.8842(3) 0.0977(13) Uani 1 d . .
H26A H 0.7862(4) 1.1730(3) 0.9074(3) 0.117 Uiso 1 calc R .
H26B H 0.6563(4) 1.1363(3) 0.9284(3) 0.117 Uiso 1 calc R .
O27 O 0.6957(2) 1.0366(2) 0.8535(2) 0.0847(7) Uani 1 d . .
C28 C 0.7574(3) 0.9773(2) 0.9108(2) 0.0718(8) Uani 1 d . .
C29 C 0.8082(4) 1.0011(4) 0.9968(3) 0.1017(13) Uani 1 d . .
H29A H 0.8008(4) 1.0617(4) 1.0212(3) 0.122 Uiso 1 calc R .
C30 C 0.8699(5) 0.9351(4) 1.0467(3) 0.116(2) Uani 1 d . .
H30A H 0.9043(5) 0.9517(4) 1.1046(3) 0.139 Uiso 1 calc R .
C31 C 0.8805(4) 0.8471(4) 1.0120(3) 0.1009(13) Uani 1 d . .
H31A H 0.9221(4) 0.8030(4) 1.0460(3) 0.121 Uiso 1 calc R .
C32 C 0.8296(3) 0.8220(3) 0.9261(2) 0.0768(9) Uani 1 d . .
H32A H 0.8378(3) 0.7610(3) 0.9028(2) 0.092 Uiso 1 calc R .
C33 C 0.7670(3) 0.8856(2) 0.8743(2) 0.0597(7) Uani 1 d . .
N34 N 0.7092(2) 0.8628(2) 0.78659(14) 0.0556(6) Uani 1 d D .
H34A H 0.7074(29) 0.9181(13) 0.7573(17) 0.070(9) Uiso 1 d D .
C35 C 0.7455(3) 0.7839(2) 0.7425(2) 0.0606(7) Uani 1 d . .
H35A H 0.8368(3) 0.7902(2) 0.7622(2) 0.073 Uiso 1 calc R .
H35B H 0.7237(3) 0.7936(2) 0.6825(2) 0.073 Uiso 1 calc R .
N40 N 0.4212(2) 0.8373(2) 0.73094(15) 0.0556(6) Uani 1 d D .
H40A H 0.3719(26) 0.7766(12) 0.7099(21) 0.082(11) Uiso 1 d D .
H40B H 0.5028(10) 0.8322(27) 0.7520(21) 0.087(11) Uiso 1 d D .
C41 C 0.4059(3) 0.9030(2) 0.6582(2) 0.0605(7) Uani 1 d . .
H41A H 0.4211(3) 0.9729(2) 0.6802(2) 0.073 Uiso 1 calc R .
H41B H 0.3191(3) 0.8853(2) 0.6227(2) 0.073 Uiso 1 calc R .
C42 C 0.4944(2) 0.8933(2) 0.6050(2) 0.0510(6) Uani 1 d . .
C43 C 0.5903(2) 0.9750(2) 0.6074(2) 0.0526(6) Uani 1 d . .
H43A H 0.6011(2) 1.0327(2) 0.6429(2) 0.063 Uiso 1 calc R .
C44 C 0.6706(2) 0.9703(2) 0.5565(2) 0.0536(6) Uani 1 d . .
C45 C 0.6549(3) 0.8849(2) 0.5040(2) 0.0588(7) Uani 1 d . .
H45A H 0.7084(3) 0.8824(2) 0.4696(2) 0.071 Uiso 1 calc R .
C46 C 0.5592(3) 0.8029(2) 0.5026(2) 0.0578(7) Uani 1 d . .
C47 C 0.4776(3) 0.8065(2) 0.5532(2) 0.0574(7) Uani 1 d . .
H47A H 0.4131(3) 0.7516(2) 0.5522(2) 0.069 Uiso 1 calc R .
O48 O 0.7670(2) 1.0473(2) 0.55325(14) 0.0735(6) Uani 1 d . .
C49 C 0.7930(4) 1.1328(3) 0.6118(3) 0.0851(10) Uani 1 d . .
H49A H 0.8621(4) 1.1816(3) 0.6035(3) 0.128 Uiso 1 calc R .
H49B H 0.8153(4) 1.1124(3) 0.6684(3) 0.128 Uiso 1 calc R .
H49C H 0.7190(4) 1.1623(3) 0.6029(3) 0.128 Uiso 1 calc R .
O50 O 0.5525(2) 0.7217(2) 0.4491(2) 0.0830(7) Uani 1 d . .
C51 C 0.4510(4) 0.6380(3) 0.4424(3) 0.111(2) Uani 1 d . .
H51A H 0.4559(4) 0.5859(3) 0.4033(3) 0.166 Uiso 1 calc R .
H51B H 0.3715(4) 0.6593(3) 0.4223(3) 0.166 Uiso 1 calc R .
H51C H 0.4570(4) 0.6124(3) 0.4969(3) 0.166 Uiso 1 calc R .
C52 C 0.3837(3) 0.8823(2) 0.8022(2) 0.0645(8) Uani 1 d . .
H52A H 0.3124(3) 0.9144(2) 0.7792(2) 0.077 Uiso 1 calc R .
H52B H 0.4539(3) 0.9340(2) 0.8348(2) 0.077 Uiso 1 calc R .
C53 C 0.3478(3) 0.8047(2) 0.8601(2) 0.0563(7) Uani 1 d . .
C54 C 0.2217(3) 0.7746(2) 0.8554(2) 0.0571(7) Uani 1 d . .
H54A H 0.1614(3) 0.8022(2) 0.8173(2) 0.069 Uiso 1 calc R .
C55 C 0.1836(3) 0.7031(2) 0.9074(2) 0.0549(6) Uani 1 d . .
C56 C 0.2730(3) 0.6610(2) 0.9628(2) 0.0606(7) Uani 1 d . .
H56A H 0.2480(3) 0.6125(2) 0.9973(2) 0.073 Uiso 1 calc R .
C57 C 0.4002(3) 0.6909(2) 0.9669(2) 0.0666(8) Uani 1 d . .
C58 C 0.4396(3) 0.7639(2) 0.9168(2) 0.0645(7) Uani 1 d . .
H58A H 0.5253(3) 0.7853(2) 0.9209(2) 0.077 Uiso 1 calc R .
O59 O 0.0570(2) 0.6808(2) 0.89927(14) 0.0721(6) Uani 1 d . .
C60 C 0.0151(4) 0.6085(3) 0.9520(2) 0.0861(10) Uani 1 d . .
H60A H -0.0754(4) 0.5989(3) 0.9408(2) 0.129 Uiso 1 calc R .
H60B H 0.0545(4) 0.6323(3) 1.0103(2) 0.129 Uiso 1 calc R .
H60C H 0.0379(4) 0.5455(3) 0.9407(2) 0.129 Uiso 1 calc R .
O61 O 0.4791(2) 0.6427(2) 1.0228(2) 0.0977(8) Uani 1 d . .
C62 C 0.6075(4) 0.6558(5) 1.0213(3) 0.129(2) Uani 1 d . .
H62A H 0.6519(4) 0.6178(5) 1.0637(3) 0.193 Uiso 1 calc R .
H62B H 0.6466(4) 0.7261(5) 1.0327(3) 0.193 Uiso 1 calc R .
H62C H 0.6110(4) 0.6324(5) 0.9665(3) 0.193 Uiso 1 calc R .
P10 P 1.00797(9) 0.35856(8) 0.77926(6) 0.0794(3) Uani 1 d . .
F11 F 0.8736(2) 0.3352(2) 0.71036(14) 0.1045(7) Uani 1 d . .
F12 F 1.0211(3) 0.4722(2) 0.7611(2) 0.1439(11) Uani 1 d . .
F13 F 0.9338(4) 0.3742(3) 0.8460(2) 0.1559(13) Uani 1 d . .
F14 F 0.9918(3) 0.2424(2) 0.7955(2) 0.1366(10) Uani 1 d . .
F15 F 1.0668(3) 0.3366(3) 0.7058(2) 0.1563(13) Uani 1 d . .
F16 F 1.1337(3) 0.3818(3) 0.8489(3) 0.195(2) Uani 1 d . .

loop_
_atom_site_aniso_label
_atom_site_aniso_U_11
_atom_site_aniso_U_22
_atom_site_aniso_U_33
_atom_site_aniso_U_23
_atom_site_aniso_U_13
_atom_site_aniso_U_12
N1 0.0571(13) 0.0524(13) 0.0495(12) 0.0043(9) 0.0114(10) 0.0204(10)
C2 0.057(2) 0.059(2) 0.0504(14) -0.0033(12) 0.0059(12) 0.0223(13)
C3 0.063(2) 0.074(2) 0.096(2) -0.012(2) 0.002(2) 0.033(2)
C4 0.082(3) 0.060(2) 0.149(4) -0.007(2) -0.010(2) 0.037(2)
C5 0.090(3) 0.049(2) 0.116(3) 0.005(2) -0.004(2) 0.021(2)
C6 0.069(2) 0.049(2) 0.054(2) 0.0017(12) 0.0018(13) 0.0164(13)
C7 0.075(2) 0.059(2) 0.058(2) 0.0042(13) 0.0152(14) 0.0074(14)
N8 0.0555(14) 0.0689(15) 0.0567(13) 0.0013(11) 0.0161(11) 0.0145(12)
C9 0.0486(14) 0.062(2) 0.057(2) 0.0006(13) 0.0141(12) 0.0042(12)
C10 0.064(2) 0.070(2) 0.067(2) -0.0024(15) 0.0107(15) 0.0134(15)
C11 0.080(2) 0.078(2) 0.076(2) -0.017(2) 0.019(2) 0.009(2)
C12 0.079(2) 0.091(2) 0.059(2) -0.006(2) 0.011(2) 0.002(2)
C13 0.063(2) 0.080(2) 0.063(2) 0.009(2) 0.0086(15) 0.006(2)
C14 0.050(2) 0.065(2) 0.067(2) 0.0044(14) 0.0165(13) 0.0039(13)
O15 0.0682(13) 0.0815(15) 0.0750(14) 0.0043(11) 0.0120(11) 0.0284(11)
C16 0.059(2) 0.092(2) 0.101(3) 0.012(2) 0.012(2) 0.025(2)
C17 0.072(2) 0.134(4) 0.133(4) 0.000(3) 0.024(2) 0.043(3)
O18 0.095(2) 0.100(2) 0.158(3) -0.013(2) 0.012(2) 0.047(2)
C19 0.095(5) 0.126(6) 0.112(6) 0.028(5) 0.012(4) 0.051(5)
C20 0.093(6) 0.095(6) 0.148(9) 0.003(5) 0.023(5) 0.070(5)
O21 0.095(3) 0.071(3) 0.115(4) 0.003(3) 0.033(3) 0.046(2)
C22 0.115(7) 0.070(4) 0.146(8) -0.028(4) 0.010(4) 0.062(5)
C23 0.132(7) 0.080(4) 0.142(7) -0.031(5) 0.064(6) 0.012(4)
O24 0.113(2) 0.078(2) 0.191(3) -0.027(2) 0.003(2) 0.036(2)
C25 0.124(4) 0.056(2) 0.147(4) -0.008(2) 0.035(3) 0.020(2)
C26 0.100(3) 0.063(2) 0.124(3) -0.025(2) 0.022(2) 0.017(2)
O27 0.096(2) 0.0621(13) 0.090(2) -0.0151(12) 0.0136(13) 0.0219(12)
C28 0.069(2) 0.070(2) 0.070(2) -0.008(2) 0.012(2) 0.010(2)
C29 0.110(3) 0.105(3) 0.076(2) -0.030(2) 0.011(2) 0.013(2)
C30 0.119(4) 0.141(4) 0.065(2) -0.014(3) -0.005(2) 0.018(3)
C31 0.098(3) 0.112(3) 0.071(2) 0.011(2) -0.010(2) 0.017(2)
C32 0.072(2) 0.079(2) 0.066(2) 0.003(2) -0.002(2) 0.014(2)
C33 0.052(2) 0.064(2) 0.057(2) -0.0005(13) 0.0088(13) 0.0052(13)
N34 0.0598(13) 0.0530(13) 0.0541(13) 0.0050(10) 0.0128(11) 0.0161(11)
C35 0.054(2) 0.073(2) 0.057(2) 0.0027(14) 0.0153(13) 0.0200(14)
N40 0.066(2) 0.0564(14) 0.0579(14) 0.0133(11) 0.0302(12) 0.0240(12)
C41 0.065(2) 0.065(2) 0.067(2) 0.0243(14) 0.0323(14) 0.0291(14)
C42 0.0505(14) 0.059(2) 0.0515(14) 0.0168(12) 0.0179(11) 0.0229(12)
C43 0.0547(15) 0.0551(15) 0.0499(14) 0.0099(11) 0.0134(12) 0.0170(12)
C44 0.0464(14) 0.063(2) 0.0525(15) 0.0144(12) 0.0138(12) 0.0122(12)
C45 0.0511(15) 0.076(2) 0.056(2) 0.0125(14) 0.0211(12) 0.0183(14)
C46 0.058(2) 0.061(2) 0.058(2) 0.0037(13) 0.0170(13) 0.0194(13)
C47 0.0501(15) 0.059(2) 0.066(2) 0.0107(13) 0.0193(13) 0.0116(12)
O48 0.0637(12) 0.0772(14) 0.0798(14) 0.0047(11) 0.0303(11) -0.0005(10)
C49 0.077(2) 0.071(2) 0.100(3) 0.000(2) 0.026(2) -0.005(2)
O50 0.084(2) 0.0750(14) 0.095(2) -0.0152(12) 0.0402(13) 0.0108(12)
C51 0.095(3) 0.083(3) 0.152(4) -0.040(3) 0.046(3) 0.000(2)
C52 0.082(2) 0.056(2) 0.069(2) 0.0076(13) 0.041(2) 0.0193(14)
C53 0.071(2) 0.0523(15) 0.0542(15) 0.0031(12) 0.0290(13) 0.0163(13)
C54 0.069(2) 0.058(2) 0.0518(15) 0.0109(12) 0.0235(13) 0.0221(13)
C55 0.063(2) 0.0550(15) 0.0518(15) 0.0058(12) 0.0225(13) 0.0143(13)
C56 0.074(2) 0.063(2) 0.0477(15) 0.0116(13) 0.0210(14) 0.0147(14)
C57 0.072(2) 0.078(2) 0.051(2) 0.0096(14) 0.0112(14) 0.025(2)
C58 0.063(2) 0.073(2) 0.062(2) 0.0061(14) 0.0224(14) 0.0142(15)
O59 0.0643(13) 0.0804(14) 0.0773(14) 0.0264(11) 0.0282(11) 0.0137(10)
C60 0.085(2) 0.091(3) 0.087(2) 0.031(2) 0.038(2) 0.006(2)
O61 0.081(2) 0.127(2) 0.086(2) 0.041(2) 0.0110(13) 0.036(2)
C62 0.077(3) 0.188(5) 0.122(4) 0.051(4) 0.010(3) 0.054(3)
P10 0.0857(6) 0.0872(6) 0.0639(5) 0.0075(4) 0.0077(4) 0.0327(5)
F11 0.099(2) 0.117(2) 0.0845(14) 0.0068(12) -0.0018(12) 0.0306(13)
F12 0.175(3) 0.085(2) 0.144(2) 0.015(2) -0.002(2) 0.024(2)
F13 0.192(3) 0.212(3) 0.084(2) -0.003(2) 0.054(2) 0.070(3)
F14 0.180(3) 0.102(2) 0.121(2) 0.035(2) 0.012(2) 0.051(2)
F15 0.159(3) 0.208(3) 0.150(3) 0.037(2) 0.084(2) 0.092(3)
F16 0.129(2) 0.185(3) 0.195(3) 0.035(3) -0.081(2) 0.021(2)

_geom_special_details            
; 
All esds (except the esd in the dihedral angle between two l.s. planes) 
are estimated using the full covariance matrix.  The cell esds are taken 
into account individually in the estimation of esds in distances, angles 
and torsion angles; correlations between esds in cell parameters are only 
used when they are defined by crystal symmetry.  An approximate (isotropic) 
treatment of cell esds is used for estimating esds involving l.s. planes. 
;

loop_
_geom_bond_atom_site_label_1
_geom_bond_atom_site_label_2
_geom_bond_distance
_geom_bond_site_symmetry_2
_geom_bond_publ_flag
N1 C6 1.334(4) . ?
N1 C2 1.337(4) . ?
C2 C3 1.384(4) . ?
C2 C35 1.511(4) . ?
C3 C4 1.367(5) . ?
C4 C5 1.365(6) . ?
C5 C6 1.388(4) . ?
C6 C7 1.512(4) . ?
C7 N8 1.458(4) . ?
N8 C9 1.403(4) . ?
C9 C10 1.382(4) . ?
C9 C14 1.401(4) . ?
C10 C11 1.391(4) . ?
C11 C12 1.360(5) . ?
C12 C13 1.373(5) . ?
C13 C14 1.376(4) . ?
C14 O15 1.379(4) . ?
O15 C16 1.415(4) . ?
C16 C17 1.461(6) . ?
C17 O18 1.396(5) . ?
O18 C19' 1.343(7) . ?
O18 C19 1.345(6) . ?
C19 C20 1.477(8) . ?
C20 O21 1.391(7) . ?
O21 C22 1.419(6) . ?
C22 C23 1.473(8) . ?
C23 O24 1.287(6) . ?
C19' C20' 1.447(10) . ?
C20' O21' 1.405(10) . ?
O21' C22' 1.405(10) . ?
C22' C23' 1.449(10) . ?
C23' O24 1.357(8) . ?
O24 C25 1.394(5) . ?
C25 C26 1.470(6) . ?
C26 O27 1.432(4) . ?
O27 C28 1.379(4) . ?
C28 C29 1.380(5) . ?
C28 C33 1.397(4) . ?
C29 C30 1.380(6) . ?
C30 C31 1.345(6) . ?
C31 C32 1.382(5) . ?
C32 C33 1.377(4) . ?
C33 N34 1.413(4) . ?
N34 C35 1.451(3) . ?
N40 C52 1.497(3) . ?
N40 C41 1.501(3) . ?
C41 C42 1.505(4) . ?
C42 C43 1.380(4) . ?
C42 C47 1.385(4) . ?
C43 C44 1.390(4) . ?
C44 O48 1.364(3) . ?
C44 C45 1.378(4) . ?
C45 C46 1.385(4) . ?
C46 O50 1.366(3) . ?
C46 C47 1.394(4) . ?
O48 C49 1.420(4) . ?
O50 C51 1.424(5) . ?
C52 C53 1.506(4) . ?
C53 C54 1.372(4) . ?
C53 C58 1.396(4) . ?
C54 C55 1.390(4) . ?
C55 O59 1.358(3) . ?
C55 C56 1.378(4) . ?
C56 C57 1.385(4) . ?
C57 O61 1.362(4) . ?
C57 C58 1.387(4) . ?
O59 C60 1.421(4) . ?
O61 C62 1.418(5) . ?
P10 F16 1.529(3) . ?
P10 F12 1.559(3) . ?
P10 F15 1.567(3) . ?
P10 F13 1.573(3) . ?
P10 F14 1.585(3) . ?
P10 F11 1.590(2) . ?

loop_
_geom_angle_atom_site_label_1
_geom_angle_atom_site_label_2
_geom_angle_atom_site_label_3
_geom_angle
_geom_angle_site_symmetry_1
_geom_angle_site_symmetry_3
_geom_angle_publ_flag
C6 N1 C2 118.4(2) . . ?
N1 C2 C3 122.2(3) . . ?
N1 C2 C35 117.2(2) . . ?
C3 C2 C35 120.6(3) . . ?
C4 C3 C2 119.3(3) . . ?
C5 C4 C3 118.7(3) . . ?
C4 C5 C6 119.7(3) . . ?
N1 C6 C5 121.7(3) . . ?
N1 C6 C7 118.2(2) . . ?
C5 C6 C7 120.1(3) . . ?
N8 C7 C6 113.0(2) . . ?
C9 N8 C7 118.1(2) . . ?
C10 C9 C14 117.9(3) . . ?
C10 C9 N8 124.5(3) . . ?
C14 C9 N8 117.5(3) . . ?
C9 C10 C11 120.4(3) . . ?
C12 C11 C10 120.6(3) . . ?
C11 C12 C13 120.2(3) . . ?
C12 C13 C14 119.9(3) . . ?
C13 C14 O15 125.7(3) . . ?
C13 C14 C9 121.0(3) . . ?
O15 C14 C9 113.3(3) . . ?
C14 O15 C16 118.5(3) . . ?
O15 C16 C17 109.2(3) . . ?
O18 C17 C16 114.1(4) . . ?
C19' O18 C17 124.0(5) . . ?
C19 O18 C17 112.8(4) . . ?
O18 C19 C20 113.2(7) . . ?
O21 C20 C19 109.9(6) . . ?
C20 O21 C22 112.3(5) . . ?
O21 C22 C23 118.2(5) . . ?
O24 C23 C22 116.9(7) . . ?
O18 C19' C20' 119.6(11) . . ?
O21' C20' C19' 109.7(11) . . ?
C22' O21' C20' 108.8(11) . . ?
O21' C22' C23' 116.2(12) . . ?
O24 C23' C22' 117.6(12) . . ?
C23 O24 C25 121.1(4) . . ?
C23' O24 C25 123.1(6) . . ?
O24 C25 C26 113.7(4) . . ?
O27 C26 C25 107.5(3) . . ?
C28 O27 C26 116.7(3) . . ?
O27 C28 C29 126.3(3) . . ?
O27 C28 C33 113.8(3) . . ?
C29 C28 C33 119.9(4) . . ?
C28 C29 C30 120.2(4) . . ?
C31 C30 C29 120.3(4) . . ?
C30 C31 C32 120.2(4) . . ?
C33 C32 C31 121.2(4) . . ?
C32 C33 C28 118.2(3) . . ?
C32 C33 N34 123.9(3) . . ?
C28 C33 N34 117.9(3) . . ?
C33 N34 C35 119.0(2) . . ?
N34 C35 C2 113.8(2) . . ?
C52 N40 C41 110.6(2) . . ?
N40 C41 C42 113.2(2) . . ?
C43 C42 C47 121.1(2) . . ?
C43 C42 C41 117.7(3) . . ?
C47 C42 C41 121.1(3) . . ?
C42 C43 C44 119.3(3) . . ?
O48 C44 C45 115.6(2) . . ?
O48 C44 C43 123.9(3) . . ?
C45 C44 C43 120.5(3) . . ?
C44 C45 C46 119.8(3) . . ?
O50 C46 C45 115.2(3) . . ?
O50 C46 C47 124.3(3) . . ?
C45 C46 C47 120.5(3) . . ?
C42 C47 C46 118.8(3) . . ?
C44 O48 C49 117.0(2) . . ?
C46 O50 C51 116.9(3) . . ?
N40 C52 C53 112.4(2) . . ?
C54 C53 C58 120.6(3) . . ?
C54 C53 C52 118.1(3) . . ?
C58 C53 C52 121.3(3) . . ?
C53 C54 C55 120.3(3) . . ?
O59 C55 C56 124.8(3) . . ?
O59 C55 C54 115.5(2) . . ?
C56 C55 C54 119.7(3) . . ?
C55 C56 C57 119.8(3) . . ?
O61 C57 C56 114.4(3) . . ?
O61 C57 C58 124.6(3) . . ?
C56 C57 C58 121.0(3) . . ?
C57 C58 C53 118.5(3) . . ?
C55 O59 C60 116.9(3) . . ?
C57 O61 C62 118.3(3) . . ?
F16 P10 F12 90.9(2) . . ?
F16 P10 F15 95.9(2) . . ?
F12 P10 F15 90.7(2) . . ?
F16 P10 F13 90.4(2) . . ?
F12 P10 F13 91.1(2) . . ?
F15 P10 F13 173.4(2) . . ?
F16 P10 F14 90.5(2) . . ?
F12 P10 F14 178.5(2) . . ?
F15 P10 F14 88.8(2) . . ?
F13 P10 F14 89.2(2) . . ?
F16 P10 F11 177.1(2) . . ?
F12 P10 F11 89.17(15) . . ?
F15 P10 F11 87.0(2) . . ?
F13 P10 F11 86.7(2) . . ?
F14 P10 F11 89.4(2) . . ?

_refine_diff_density_max         0.383
_refine_diff_density_min         -0.289
_refine_diff_density_rms         0.040


