####################################################################### 
# 
# This file contains crystal structure data downloaded from the 
# Cambridge Structural Database (CSD) hosted by the Cambridge 
# Crystallographic Data Centre (CCDC).
# 
# Full information about CCDC data access policies and citation 
# guidelines are available at http://www.ccdc.cam.ac.uk/access/V1 
# 
# Audit and citation data items may have been added by the CCDC. 
# Please retain this information to preserve the provenance of 
# this file and to allow appropriate attribution of the data. 
# 
#######################################################################

data_FS0012
_audit_block_doi                 10.5517/cc57fmf
_database_code_depnum_ccdc_archive 'CCDC 156104'
loop_
_citation_id
_citation_doi
_citation_year
1 10.1002/1521-3773(20010518)40:10<1870::AID-ANIE1870>3.3.CO;2-Q 2001
_audit_update_record             
;
2001-01-15 deposited with the CCDC.
2017-12-20 downloaded from the CCDC.
;

_audit_creation_method           SHELXL
_chemical_name_systematic        
; 
? 
;
_chemical_name_common            ?
_chemical_formula_moiety         ?
_chemical_formula_structural     ?
_chemical_formula_analytical     ?
_chemical_formula_sum            'C45 H56 N4 O9'
_chemical_formula_weight         796.94
_chemical_melting_point          ?
_chemical_compound_source        ?

loop_
_atom_type_symbol
_atom_type_description
_atom_type_scat_dispersion_real
_atom_type_scat_dispersion_imag
_atom_type_scat_source
C C 0.0181 0.0091 'International Tables Vol C Tables 4.2.6.8 and 6.1.1.4'
H H 0.0000 0.0000 'International Tables Vol C Tables 4.2.6.8 and 6.1.1.4'
N N 0.0311 0.0180 'International Tables Vol C Tables 4.2.6.8 and 6.1.1.4'
O O 0.0492 0.0322 'International Tables Vol C Tables 4.2.6.8 and 6.1.1.4'

_symmetry_cell_setting           Triclinic
_symmetry_space_group_name_H-M   P-1

loop_
_symmetry_equiv_pos_as_xyz
'x, y, z'
'-x, -y, -z'

_cell_length_a                   9.9926(4)
_cell_length_b                   13.0631(7)
_cell_length_c                   16.3821(6)
_cell_angle_alpha                95.903(4)
_cell_angle_beta                 90.806(4)
_cell_angle_gamma                92.451(4)
_cell_volume                     2124.8(2)
_cell_formula_units_Z            2
_cell_measurement_temperature    293(2)
_cell_measurement_reflns_used    20
_cell_measurement_theta_min      11.09
_cell_measurement_theta_max      22.72

_exptl_crystal_description       'platy needles'
_exptl_crystal_colour            Colourless
_exptl_crystal_size_max          0.83
_exptl_crystal_size_mid          0.33
_exptl_crystal_size_min          0.10
_exptl_crystal_density_meas      ?
_exptl_crystal_density_diffrn    1.246
_exptl_crystal_density_method    ?
_exptl_crystal_F_000             852
_exptl_absorpt_coefficient_mu    0.707
_exptl_absorpt_correction_type   none
_exptl_absorpt_correction_T_min  ?
_exptl_absorpt_correction_T_max  ?

_exptl_special_details           
; 
? 
;

_diffrn_ambient_temperature      293(2)
_diffrn_radiation_wavelength     1.54178
_diffrn_radiation_type           CuK\a
_diffrn_radiation_source         'fine-focus sealed tube'
_diffrn_radiation_monochromator  graphite
_diffrn_measurement_device       'Siemens P4'
_diffrn_measurement_method       '\w scans'
_diffrn_standards_number         3
_diffrn_standards_interval_count 97
_diffrn_standards_interval_time  ?
_diffrn_standards_decay_%        ?
_diffrn_reflns_number            6743
_diffrn_reflns_av_R_equivalents  0.0122
_diffrn_reflns_av_sigmaI/netI    0.0255
_diffrn_reflns_limit_h_min       -11
_diffrn_reflns_limit_h_max       8
_diffrn_reflns_limit_k_min       -14
_diffrn_reflns_limit_k_max       14
_diffrn_reflns_limit_l_min       -18
_diffrn_reflns_limit_l_max       18
_diffrn_reflns_theta_min         2.71
_diffrn_reflns_theta_max         59.98
_reflns_number_total             6291
_reflns_number_observed          5221
_reflns_observed_criterion       >2sigma(I)

_computing_data_collection       'Siemens XSCANS'
_computing_cell_refinement       'Siemens XSCANS'
_computing_data_reduction        'Siemens SHELXTL'
_computing_structure_solution    'SHELXS-86 (Sheldrick, 1990)'
_computing_structure_refinement  'SHELXL-93 (Sheldrick, 1993)'
_computing_molecular_graphics    'Siemens SHELXTL'
_computing_publication_material  'Siemens SHELXTL'

_refine_special_details          
; 
Refinement on F^2^ for ALL reflections except for 330 with very negative F^2^ 
or flagged by the user for potential systematic errors.  Weighted R-factors 
wR and all goodnesses of fit S are based on F^2^, conventional R-factors R 
are based on F, with F set to zero for negative F^2^. The observed criterion 
of F^2^ > 2sigma(F^2^) is used only for calculating _R_factor_obs etc. and is 
not relevant to the choice of reflections for refinement.  R-factors based 
on F^2^ are statistically about twice as large as those based on F, and R- 
factors based on ALL data will be even larger. 
;

_refine_ls_structure_factor_coef Fsqd
_refine_ls_matrix_type           full
_refine_ls_weighting_scheme      
'calc w=1/[\s^2^(Fo^2^)+(0.0714P)^2^+0.3924P] where P=(Fo^2^+2Fc^2^)/3'
_atom_sites_solution_primary     direct
_atom_sites_solution_secondary   difmap
_atom_sites_solution_hydrogens   geom
_refine_ls_hydrogen_treatment    ?
_refine_ls_extinction_method     SHELXL
_refine_ls_extinction_coef       0.0081(5)
_refine_ls_extinction_expression Fc^*^=kFc[1+0.001xFc^2^\l^3^/sin(2\q)]^-1/4^
_refine_ls_number_reflns         5961
_refine_ls_number_parameters     556
_refine_ls_number_restraints     78
_refine_ls_R_factor_all          0.0589
_refine_ls_R_factor_obs          0.0475
_refine_ls_wR_factor_all         0.1387
_refine_ls_wR_factor_obs         0.1252
_refine_ls_goodness_of_fit_all   1.056
_refine_ls_goodness_of_fit_obs   1.084
_refine_ls_restrained_S_all      1.171
_refine_ls_restrained_S_obs      1.188
_refine_ls_shift/esd_max         0.000
_refine_ls_shift/esd_mean        0.000

loop_
_atom_site_label
_atom_site_type_symbol
_atom_site_fract_x
_atom_site_fract_y
_atom_site_fract_z
_atom_site_U_iso_or_equiv
_atom_site_thermal_displace_type
_atom_site_occupancy
_atom_site_calc_flag
_atom_site_refinement_flags
_atom_site_disorder_group
N1 N 0.3941(2) 0.69544(15) 0.38297(11) 0.0545(5) Uani 1 d . .
C2 C 0.3810(2) 0.6227(2) 0.43546(14) 0.0572(6) Uani 1 d . .
C3 C 0.4210(3) 0.6399(2) 0.5162(2) 0.0738(7) Uani 1 d . .
H3A H 0.4126(3) 0.5875(2) 0.5504(2) 0.089 Uiso 1 calc R .
C4 C 0.4741(3) 0.7363(3) 0.5461(2) 0.0842(9) Uani 1 d . .
H4A H 0.5024(3) 0.7499(3) 0.6007(2) 0.101 Uiso 1 calc R .
C5 C 0.4840(3) 0.8112(2) 0.4934(2) 0.0724(7) Uani 1 d . .
H5A H 0.5164(3) 0.8772(2) 0.5125(2) 0.087 Uiso 1 calc R .
C6 C 0.4461(2) 0.7887(2) 0.41231(15) 0.0558(5) Uani 1 d . .
C7 C 0.4597(2) 0.8693(2) 0.3532(2) 0.0605(6) Uani 1 d . .
H7A H 0.4140(2) 0.8442(2) 0.3019(2) 0.073 Uiso 1 calc R .
H7B H 0.4172(2) 0.9311(2) 0.3757(2) 0.073 Uiso 1 calc R .
N8 N 0.5990(2) 0.89414(14) 0.33740(12) 0.0515(4) Uani 1 d D .
H8A H 0.6517(21) 0.8403(12) 0.3272(15) 0.063(7) Uiso 1 d D .
C9 C 0.6303(2) 0.9727(2) 0.28853(14) 0.0553(5) Uani 1 d . .
C10 C 0.5375(3) 1.0418(2) 0.2665(2) 0.0748(7) Uani 1 d . .
H10A H 0.4489(3) 1.0343(2) 0.2824(2) 0.090 Uiso 1 calc R .
C11 C 0.5758(4) 1.1223(2) 0.2209(2) 0.0974(11) Uani 1 d . .
H11A H 0.5129(4) 1.1685(2) 0.2074(2) 0.117 Uiso 1 calc R .
C12 C 0.7034(4) 1.1338(3) 0.1960(2) 0.0972(11) Uani 1 d . .
H12A H 0.7275(4) 1.1875(3) 0.1652(2) 0.117 Uiso 1 calc R .
C13 C 0.7988(3) 1.0660(2) 0.2162(2) 0.0773(8) Uani 1 d . .
H13A H 0.8866(3) 1.0740(2) 0.1989(2) 0.093 Uiso 1 calc R .
C14 C 0.7628(2) 0.9864(2) 0.26218(14) 0.0564(5) Uani 1 d . .
O15 O 0.8500(2) 0.91597(12) 0.28504(10) 0.0589(4) Uani 1 d . .
C16 C 0.9867(3) 0.9284(2) 0.2631(2) 0.0673(7) Uani 1 d . .
H16A H 1.0254(3) 0.9924(2) 0.2905(2) 0.081 Uiso 1 calc R .
H16B H 0.9927(3) 0.9314(2) 0.2043(2) 0.081 Uiso 1 calc R .
C17 C 1.0617(2) 0.8402(2) 0.2876(2) 0.0699(7) Uani 1 d . .
H17A H 1.1573(2) 0.8566(2) 0.2871(2) 0.084 Uiso 1 calc R .
H17B H 1.0380(2) 0.8265(2) 0.3427(2) 0.084 Uiso 1 calc R .
O18 O 1.0294(2) 0.75191(14) 0.23173(11) 0.0697(5) Uani 1 d D .
C19 C 1.1023(3) 0.6656(2) 0.2463(2) 0.0876(9) Uani 1 d D .
H19A H 1.0718(3) 0.6420(2) 0.2974(2) 0.105 Uiso 0.55 calc PR 1
H19B H 1.1956(3) 0.6884(2) 0.2546(2) 0.105 Uiso 0.55 calc PR 1
H19C H 1.0567(3) 0.6249(2) 0.2838(2) 0.105 Uiso 0.45 d PR 2
H19D H 1.1888(3) 0.6881(2) 0.2692(2) 0.105 Uiso 0.45 d PR 2
C20 C 1.0964(4) 0.5789(5) 0.1853(5) 0.086(2) Uani 0.55 d PDU 1
H20A H 1.1352(4) 0.5990(5) 0.1351(5) 0.104 Uiso 0.55 calc PR 1
H20B H 1.1492(4) 0.5249(5) 0.2039(5) 0.104 Uiso 0.55 calc PR 1
O21 O 0.9650(3) 0.5408(3) 0.1691(2) 0.0701(9) Uani 0.55 d PD 1
C22 C 0.9597(5) 0.4621(5) 0.1041(4) 0.095(2) Uani 0.55 d PDU 1
H22A H 0.9989(5) 0.4017(5) 0.1227(4) 0.114 Uiso 0.55 calc PR 1
H22B H 1.0143(5) 0.4840(5) 0.0600(4) 0.114 Uiso 0.55 calc PR 1
C23 C 0.8282(5) 0.4334(7) 0.0720(3) 0.101(2) Uani 0.55 d PDU 1
H23A H 0.7948(5) 0.4916(7) 0.0468(3) 0.121 Uiso 0.55 calc PR 1
H23B H 0.8361(5) 0.3777(7) 0.0286(3) 0.121 Uiso 0.55 calc PR 1
O24 O 0.7321(3) 0.4025(3) 0.1259(2) 0.0731(9) Uani 0.55 d PD 1
C20' C 1.1078(7) 0.6054(7) 0.1663(4) 0.091(3) Uiso 0.45 d PD 2
H20C H 1.1441(7) 0.6515(7) 0.1285(4) 0.109 Uiso 0.45 calc PR 2
H20D H 1.1736(7) 0.5538(7) 0.1714(4) 0.109 Uiso 0.45 calc PR 2
O21' O 0.9942(5) 0.5538(4) 0.1272(4) 0.085(2) Uiso 0.45 d PD 2
C22' C 0.9587(9) 0.4533(6) 0.1454(6) 0.104(3) Uiso 0.45 d PD 2
H22C H 0.9416(9) 0.4569(6) 0.2037(6) 0.124 Uiso 0.45 calc PR 2
H22D H 1.0367(9) 0.4123(6) 0.1357(6) 0.124 Uiso 0.45 calc PR 2
C23' C 0.8462(6) 0.3968(5) 0.1032(5) 0.084(2) Uiso 0.45 d PD 2
H23C H 0.8738(6) 0.3750(5) 0.0478(5) 0.101 Uiso 0.45 calc PR 2
H23D H 0.8293(6) 0.3348(5) 0.1300(5) 0.101 Uiso 0.45 calc PR 2
O24' O 0.7222(4) 0.4449(4) 0.0970(4) 0.086(2) Uiso 0.45 d PD 2
C25 C 0.6116(3) 0.3748(3) 0.0795(2) 0.0865(9) Uani 1 d D .
H25A H 0.5817(3) 0.3065(3) 0.0917(2) 0.104 Uiso 0.55 calc PR 1
H25B H 0.6339(3) 0.3696(3) 0.0219(2) 0.104 Uiso 0.55 calc PR 1
H25C H 0.6075(3) 0.3218(3) 0.1160(2) 0.104 Uiso 0.45 d PR 2
H25D H 0.6143(3) 0.3436(3) 0.0240(2) 0.104 Uiso 0.45 d PR 2
C26 C 0.4959(3) 0.4425(2) 0.09095(14) 0.0705(7) Uani 1 d D .
H26A H 0.5225(3) 0.5103(2) 0.07612(14) 0.085 Uiso 1 calc R .
H26B H 0.4238(3) 0.4149(2) 0.05373(14) 0.085 Uiso 1 calc R .
O27 O 0.4468(2) 0.45269(13) 0.17216(10) 0.0685(5) Uani 1 d . .
C28 C 0.3634(2) 0.3760(2) 0.19715(13) 0.0523(5) Uani 1 d . .
C29 C 0.3160(3) 0.2895(2) 0.14896(15) 0.0613(6) Uani 1 d . .
H29A H 0.3402(3) 0.2792(2) 0.09422(15) 0.074 Uiso 1 calc R .
C30 C 0.2319(3) 0.2174(2) 0.1818(2) 0.0739(7) Uani 1 d . .
H30A H 0.1998(3) 0.1588(2) 0.1493(2) 0.089 Uiso 1 calc R .
C31 C 0.1966(3) 0.2333(2) 0.2623(2) 0.0832(9) Uani 1 d . .
H31A H 0.1415(3) 0.1846(2) 0.2846(2) 0.100 Uiso 1 calc R .
C32 C 0.2423(3) 0.3213(2) 0.3108(2) 0.0723(7) Uani 1 d . .
H32A H 0.2163(3) 0.3315(2) 0.3653(2) 0.087 Uiso 1 calc R .
C33 C 0.3258(2) 0.3942(2) 0.27967(14) 0.0546(5) Uani 1 d . .
N34 N 0.3773(2) 0.4823(2) 0.32590(12) 0.0641(5) Uani 1 d D .
H34A H 0.4109(27) 0.5298(16) 0.2948(15) 0.076(8) Uiso 1 d D .
C35 C 0.3155(3) 0.5209(2) 0.40122(15) 0.0645(6) Uani 1 d . .
H35A H 0.3233(3) 0.4714(2) 0.44111(15) 0.077 Uiso 1 calc R .
H35B H 0.2209(3) 0.5294(2) 0.39102(15) 0.077 Uiso 1 calc R .
N40 N 0.7407(2) 0.69486(13) 0.30695(11) 0.0469(4) Uani 1 d D .
H40A H 0.8185(12) 0.7196(17) 0.2881(14) 0.056(7) Uiso 1 d D .
C41 C 0.6681(3) 0.6359(2) 0.23794(14) 0.0588(6) Uani 1 d . .
H41A H 0.5864(3) 0.6046(2) 0.25740(14) 0.071 Uiso 1 calc R .
H41B H 0.7229(3) 0.5813(2) 0.21441(14) 0.071 Uiso 1 calc R .
C42 C 0.6340(2) 0.7049(2) 0.17320(13) 0.0535(5) Uani 1 d . .
C43 C 0.5046(2) 0.7338(2) 0.1628(2) 0.0598(6) Uani 1 d . .
H43A H 0.4363(2) 0.7056(2) 0.1926(2) 0.072 Uiso 1 calc R .
C44 C 0.4752(3) 0.8048(2) 0.1082(2) 0.0647(6) Uani 1 d . .
C45 C 0.5747(3) 0.8453(2) 0.0625(2) 0.0666(6) Uani 1 d . .
H45A H 0.5553(3) 0.8928(2) 0.0260(2) 0.080 Uiso 1 calc R .
C46 C 0.7046(3) 0.8141(2) 0.07168(14) 0.0620(6) Uani 1 d . .
C47 C 0.7353(2) 0.7441(2) 0.12600(14) 0.0588(6) Uani 1 d . .
H47A H 0.8226(2) 0.7233(2) 0.13107(14) 0.071 Uiso 1 calc R .
O48 O 0.3434(2) 0.8294(2) 0.1043(2) 0.0961(7) Uani 1 d . .
C49 C 0.3122(4) 0.9160(3) 0.0637(3) 0.1186(14) Uani 1 d . .
H49A H 0.2174(4) 0.9248(3) 0.0652(3) 0.178 Uiso 1 calc R .
H49B H 0.3397(4) 0.9056(3) 0.0076(3) 0.178 Uiso 1 calc R .
H49C H 0.3584(4) 0.9764(3) 0.0906(3) 0.178 Uiso 1 calc R .
O50 O 0.7964(2) 0.8589(2) 0.02352(12) 0.0865(6) Uani 1 d . .
C51 C 0.9265(3) 0.8196(4) 0.0205(2) 0.1131(14) Uani 1 d . .
H51A H 0.9811(3) 0.8571(4) -0.0150(2) 0.170 Uiso 1 calc R .
H51B H 0.9205(3) 0.7480(4) -0.0002(2) 0.170 Uiso 1 calc R .
H51C H 0.9659(3) 0.8270(4) 0.0747(2) 0.170 Uiso 1 calc R .
C52 C 0.7720(2) 0.6304(2) 0.37168(14) 0.0553(5) Uani 1 d . .
H52A H 0.8192(2) 0.5713(2) 0.34822(14) 0.066 Uiso 1 calc R .
H52B H 0.6891(2) 0.6051(2) 0.39410(14) 0.066 Uiso 1 calc R .
C53 C 0.8567(2) 0.6874(2) 0.44018(13) 0.0491(5) Uani 1 d . .
C54 C 0.9523(2) 0.6359(2) 0.47951(14) 0.0544(5) Uani 1 d . .
H54A H 0.9667(2) 0.5673(2) 0.46213(14) 0.065 Uiso 1 calc R .
C55 C 1.0273(2) 0.6864(2) 0.54515(14) 0.0559(5) Uani 1 d . .
C56 C 1.0095(2) 0.7894(2) 0.56970(14) 0.0551(5) Uani 1 d . .
H56A H 1.0613(2) 0.8241(2) 0.61234(14) 0.066 Uiso 1 calc R .
C57 C 0.9130(2) 0.8402(2) 0.52956(13) 0.0504(5) Uani 1 d . .
C58 C 0.8364(2) 0.7908(2) 0.46552(13) 0.0511(5) Uani 1 d . .
H58A H 0.7719(2) 0.8259(2) 0.43950(13) 0.061 Uiso 1 calc R .
O59 O 1.1148(2) 0.62767(14) 0.58265(11) 0.0742(5) Uani 1 d . .
C60 C 1.1759(4) 0.6727(3) 0.6577(2) 0.0872(9) Uani 1 d . .
H60A H 1.2350(4) 0.6249(3) 0.6784(2) 0.131 Uiso 1 calc R .
H60B H 1.1079(4) 0.6890(3) 0.6972(2) 0.131 Uiso 1 calc R .
H60C H 1.2261(4) 0.7345(3) 0.6482(2) 0.131 Uiso 1 calc R .
O61 O 0.9001(2) 0.94174(12) 0.55918(10) 0.0640(4) Uani 1 d . .
C62 C 0.8128(3) 1.0002(2) 0.5147(2) 0.0658(6) Uani 1 d . .
H62A H 0.8120(3) 1.0693(2) 0.5410(2) 0.099 Uiso 1 calc R .
H62B H 0.7239(3) 0.9692(2) 0.5136(2) 0.099 Uiso 1 calc R .
H62C H 0.8438(3) 1.0015(2) 0.4596(2) 0.099 Uiso 1 calc R .

loop_
_atom_site_aniso_label
_atom_site_aniso_U_11
_atom_site_aniso_U_22
_atom_site_aniso_U_33
_atom_site_aniso_U_23
_atom_site_aniso_U_13
_atom_site_aniso_U_12
N1 0.0478(10) 0.0583(11) 0.0552(10) -0.0035(8) 0.0054(8) -0.0025(8)
C2 0.0539(13) 0.0658(14) 0.0500(12) -0.0020(10) 0.0112(10) -0.0031(10)
C3 0.078(2) 0.087(2) 0.0547(14) 0.0040(13) 0.0071(12) -0.0100(14)
C4 0.088(2) 0.106(2) 0.0521(14) -0.0092(15) -0.0019(13) -0.023(2)
C5 0.068(2) 0.077(2) 0.066(2) -0.0164(13) 0.0052(12) -0.0170(13)
C6 0.0401(11) 0.0601(13) 0.0644(14) -0.0074(10) 0.0073(9) 0.0001(9)
C7 0.0476(12) 0.0539(12) 0.078(2) -0.0045(11) 0.0008(11) 0.0064(10)
N8 0.0451(10) 0.0464(10) 0.0626(11) 0.0025(8) -0.0011(8) 0.0041(8)
C9 0.0624(14) 0.0434(11) 0.0579(13) -0.0014(9) -0.0114(10) -0.0015(10)
C10 0.077(2) 0.0567(14) 0.091(2) 0.0085(13) -0.0204(15) 0.0072(13)
C11 0.119(3) 0.061(2) 0.115(3) 0.026(2) -0.036(2) 0.009(2)
C12 0.124(3) 0.069(2) 0.102(2) 0.035(2) -0.022(2) -0.012(2)
C13 0.095(2) 0.064(2) 0.074(2) 0.0179(13) -0.0035(15) -0.0145(14)
C14 0.0662(14) 0.0476(12) 0.0535(12) 0.0020(9) -0.0086(10) -0.0078(10)
O15 0.0519(9) 0.0588(9) 0.0662(10) 0.0097(7) 0.0037(7) -0.0053(7)
C16 0.0584(14) 0.071(2) 0.0681(15) -0.0048(12) 0.0079(11) -0.0164(12)
C17 0.0449(12) 0.088(2) 0.072(2) -0.0110(13) -0.0029(11) -0.0106(12)
O18 0.0525(9) 0.0769(11) 0.0757(11) -0.0096(9) -0.0128(8) 0.0058(8)
C19 0.0526(15) 0.097(2) 0.112(2) 0.003(2) -0.017(2) 0.0143(14)
C20 0.062(3) 0.075(3) 0.119(4) -0.008(3) -0.018(3) 0.027(2)
O21 0.054(2) 0.074(2) 0.082(2) 0.001(2) 0.015(2) 0.0082(15)
C22 0.084(3) 0.089(3) 0.107(4) -0.017(3) 0.024(3) -0.001(3)
C23 0.087(4) 0.141(6) 0.072(4) 0.006(4) 0.014(3) -0.013(4)
O24 0.067(2) 0.103(3) 0.050(2) 0.011(2) 0.0071(14) 0.002(2)
C25 0.091(2) 0.091(2) 0.072(2) -0.015(2) 0.010(2) -0.010(2)
C26 0.096(2) 0.069(2) 0.0448(12) 0.0075(11) 0.0097(12) -0.0152(14)
O27 0.0896(13) 0.0656(10) 0.0480(9) 0.0039(7) 0.0135(8) -0.0224(9)
C28 0.0543(12) 0.0539(12) 0.0487(11) 0.0077(9) 0.0005(9) -0.0046(10)
C29 0.0671(15) 0.0633(14) 0.0518(12) 0.0010(10) 0.0011(11) -0.0051(11)
C30 0.080(2) 0.0626(15) 0.074(2) -0.0078(12) 0.0048(14) -0.0204(13)
C31 0.096(2) 0.070(2) 0.079(2) -0.0011(14) 0.021(2) -0.034(2)
C32 0.084(2) 0.069(2) 0.0613(14) 0.0020(12) 0.0196(13) -0.0232(14)
C33 0.0587(13) 0.0536(12) 0.0503(12) 0.0038(9) 0.0040(10) -0.0070(10)
N34 0.0785(14) 0.0609(12) 0.0500(11) -0.0012(9) 0.0159(10) -0.0202(10)
C35 0.072(2) 0.0646(14) 0.0547(13) 0.0002(11) 0.0151(11) -0.0117(12)
N40 0.0461(10) 0.0440(9) 0.0495(9) 0.0013(7) -0.0011(7) -0.0025(7)
C41 0.0650(14) 0.0504(12) 0.0581(13) -0.0046(10) -0.0073(11) -0.0043(10)
C42 0.0558(13) 0.0546(12) 0.0466(11) -0.0078(9) -0.0053(9) -0.0030(10)
C43 0.0537(13) 0.0616(13) 0.0615(13) -0.0037(11) -0.0001(10) -0.0024(10)
C44 0.0530(13) 0.0686(15) 0.0703(15) -0.0032(12) -0.0061(11) 0.0062(11)
C45 0.074(2) 0.0677(15) 0.0574(14) 0.0043(11) -0.0088(12) 0.0056(13)
C46 0.0645(15) 0.0723(15) 0.0457(12) -0.0060(11) 0.0026(10) -0.0085(12)
C47 0.0516(12) 0.0721(15) 0.0499(12) -0.0064(11) -0.0060(10) 0.0020(11)
O48 0.0621(12) 0.101(2) 0.129(2) 0.0245(14) -0.0064(12) 0.0187(11)
C49 0.093(3) 0.117(3) 0.151(4) 0.029(3) -0.024(2) 0.039(2)
O50 0.0811(14) 0.113(2) 0.0655(11) 0.0148(11) 0.0139(10) -0.0087(12)
C51 0.072(2) 0.189(4) 0.079(2) 0.023(2) 0.008(2) -0.018(2)
C52 0.0649(14) 0.0431(11) 0.0575(13) 0.0050(9) -0.0061(10) -0.0010(10)
C53 0.0557(12) 0.0462(11) 0.0456(11) 0.0067(9) 0.0036(9) -0.0014(9)
C54 0.0663(14) 0.0466(11) 0.0509(12) 0.0076(9) 0.0004(10) 0.0027(10)
C55 0.0608(13) 0.0564(12) 0.0519(12) 0.0128(10) -0.0016(10) 0.0033(10)
C56 0.0596(13) 0.0581(13) 0.0468(11) 0.0054(9) -0.0022(10) -0.0056(10)
C57 0.0563(12) 0.0462(11) 0.0478(11) 0.0021(9) 0.0066(9) -0.0008(9)
C58 0.0537(12) 0.0486(11) 0.0512(12) 0.0048(9) 0.0007(9) 0.0034(9)
O59 0.0866(13) 0.0658(10) 0.0703(11) 0.0075(8) -0.0238(9) 0.0126(9)
C60 0.098(2) 0.096(2) 0.068(2) 0.006(2) -0.026(2) 0.019(2)
O61 0.0781(11) 0.0504(9) 0.0607(9) -0.0061(7) -0.0058(8) 0.0033(8)
C62 0.0592(14) 0.0495(12) 0.086(2) -0.0058(12) -0.0018(12) 0.0061(10)

_geom_special_details            
; 
All esds (except the esd in the dihedral angle between two l.s. planes) 
are estimated using the full covariance matrix.  The cell esds are taken 
into account individually in the estimation of esds in distances, angles 
and torsion angles; correlations between esds in cell parameters are only 
used when they are defined by crystal symmetry.  An approximate (isotropic) 
treatment of cell esds is used for estimating esds involving l.s. planes. 
;

loop_
_geom_bond_atom_site_label_1
_geom_bond_atom_site_label_2
_geom_bond_distance
_geom_bond_site_symmetry_2
_geom_bond_publ_flag
N1 C6 1.343(3) . ?
N1 C2 1.349(3) . ?
C2 C3 1.369(4) . ?
C2 C35 1.508(3) . ?
C3 C4 1.385(4) . ?
C4 C5 1.372(4) . ?
C5 C6 1.375(4) . ?
C6 C7 1.505(4) . ?
C7 N8 1.449(3) . ?
N8 C9 1.393(3) . ?
C9 C10 1.391(3) . ?
C9 C14 1.408(4) . ?
C10 C11 1.395(4) . ?
C11 C12 1.351(5) . ?
C12 C13 1.388(5) . ?
C13 C14 1.384(4) . ?
C14 O15 1.369(3) . ?
O15 C16 1.424(3) . ?
C16 C17 1.487(4) . ?
C17 O18 1.419(3) . ?
O18 C19 1.408(3) . ?
C19 C20 1.429(4) . ?
C19 C20' 1.460(4) . ?
C20 O21 1.396(4) . ?
O21 C22 1.400(4) . ?
C22 C23 1.428(4) . ?
C23 O24 1.389(4) . ?
O24 C25 1.428(3) . ?
C20' O21' 1.406(4) . ?
O21' C22' 1.408(4) . ?
C22' C23' 1.446(4) . ?
C23' O24' 1.419(4) . ?
O24' C25 1.412(4) . ?
C25 C26 1.487(4) . ?
C26 O27 1.420(3) . ?
O27 C28 1.375(3) . ?
C28 C29 1.372(3) . ?
C28 C33 1.407(3) . ?
C29 C30 1.391(4) . ?
C30 C31 1.366(4) . ?
C31 C32 1.386(4) . ?
C32 C33 1.381(3) . ?
C33 N34 1.386(3) . ?
N34 C35 1.441(3) . ?
N40 C52 1.459(3) . ?
N40 C41 1.465(3) . ?
C41 C42 1.505(3) . ?
C42 C43 1.375(3) . ?
C42 C47 1.394(3) . ?
C43 C44 1.391(4) . ?
C44 O48 1.372(3) . ?
C44 C45 1.373(4) . ?
C45 C46 1.388(4) . ?
C46 O50 1.369(3) . ?
C46 C47 1.380(4) . ?
O48 C49 1.414(4) . ?
O50 C51 1.417(4) . ?
C52 C53 1.509(3) . ?
C53 C54 1.381(3) . ?
C53 C58 1.396(3) . ?
C54 C55 1.393(3) . ?
C55 O59 1.368(3) . ?
C55 C56 1.384(3) . ?
C56 C57 1.389(3) . ?
C57 O61 1.377(3) . ?
C57 C58 1.378(3) . ?
O59 C60 1.425(3) . ?
O61 C62 1.424(3) . ?

loop_
_geom_angle_atom_site_label_1
_geom_angle_atom_site_label_2
_geom_angle_atom_site_label_3
_geom_angle
_geom_angle_site_symmetry_1
_geom_angle_site_symmetry_3
_geom_angle_publ_flag
C6 N1 C2 118.0(2) . . ?
N1 C2 C3 122.6(2) . . ?
N1 C2 C35 116.4(2) . . ?
C3 C2 C35 121.0(2) . . ?
C2 C3 C4 119.1(3) . . ?
C5 C4 C3 118.3(3) . . ?
C4 C5 C6 120.1(2) . . ?
N1 C6 C5 121.8(2) . . ?
N1 C6 C7 117.4(2) . . ?
C5 C6 C7 120.7(2) . . ?
N8 C7 C6 111.4(2) . . ?
C9 N8 C7 119.1(2) . . ?
C10 C9 N8 123.1(2) . . ?
C10 C9 C14 117.6(2) . . ?
N8 C9 C14 119.3(2) . . ?
C9 C10 C11 120.7(3) . . ?
C12 C11 C10 120.7(3) . . ?
C11 C12 C13 120.3(3) . . ?
C14 C13 C12 119.7(3) . . ?
O15 C14 C13 123.8(2) . . ?
O15 C14 C9 115.3(2) . . ?
C13 C14 C9 121.0(2) . . ?
C14 O15 C16 117.8(2) . . ?
O15 C16 C17 109.3(2) . . ?
O18 C17 C16 109.1(2) . . ?
C19 O18 C17 113.6(2) . . ?
O18 C19 C20 118.2(4) . . ?
O18 C19 C20' 104.7(5) . . ?
O21 C20 C19 111.8(4) . . ?
C20 O21 C22 111.1(3) . . ?
O21 C22 C23 114.8(5) . . ?
O24 C23 C22 118.0(5) . . ?
C23 O24 C25 107.7(3) . . ?
O21' C20' C19 122.6(6) . . ?
C20' O21' C22' 119.0(6) . . ?
O21' C22' C23' 120.0(7) . . ?
O24' C23' C22' 119.6(6) . . ?
C25 O24' C23' 113.7(4) . . ?
O24' C25 C26 102.5(3) . . ?
O24 C25 C26 118.9(3) . . ?
O27 C26 C25 114.0(2) . . ?
C28 O27 C26 119.2(2) . . ?
C29 C28 O27 125.7(2) . . ?
C29 C28 C33 120.9(2) . . ?
O27 C28 C33 113.4(2) . . ?
C28 C29 C30 120.1(2) . . ?
C31 C30 C29 119.6(2) . . ?
C30 C31 C32 120.5(2) . . ?
C33 C32 C31 121.0(2) . . ?
C32 C33 N34 123.5(2) . . ?
C32 C33 C28 117.9(2) . . ?
N34 C33 C28 118.6(2) . . ?
C33 N34 C35 121.0(2) . . ?
N34 C35 C2 110.9(2) . . ?
C52 N40 C41 111.7(2) . . ?
N40 C41 C42 110.6(2) . . ?
C43 C42 C47 119.5(2) . . ?
C43 C42 C41 120.6(2) . . ?
C47 C42 C41 119.8(2) . . ?
C42 C43 C44 120.6(2) . . ?
O48 C44 C45 124.3(3) . . ?
O48 C44 C43 115.4(2) . . ?
C45 C44 C43 120.4(2) . . ?
C44 C45 C46 118.9(2) . . ?
O50 C46 C47 124.2(2) . . ?
O50 C46 C45 114.5(2) . . ?
C47 C46 C45 121.3(2) . . ?
C46 C47 C42 119.3(2) . . ?
C44 O48 C49 117.7(3) . . ?
C46 O50 C51 117.4(3) . . ?
N40 C52 C53 112.6(2) . . ?
C54 C53 C58 119.9(2) . . ?
C54 C53 C52 119.6(2) . . ?
C58 C53 C52 120.5(2) . . ?
C53 C54 C55 120.2(2) . . ?
O59 C55 C56 123.8(2) . . ?
O59 C55 C54 115.9(2) . . ?
C56 C55 C54 120.2(2) . . ?
C55 C56 C57 118.8(2) . . ?
O61 C57 C58 123.5(2) . . ?
O61 C57 C56 114.9(2) . . ?
C58 C57 C56 121.6(2) . . ?
C57 C58 C53 119.2(2) . . ?
C55 O59 C60 116.7(2) . . ?
C57 O61 C62 117.0(2) . . ?

_refine_diff_density_max         0.290
_refine_diff_density_min         -0.196
_refine_diff_density_rms         0.036
